p edge 38 155
v 1 800
v 2 1200
v 3 450
v 4 80
v 5 80
v 6 1200
v 7 900
v 8 50
v 9 400
v 10 180
v 11 90
v 12 900
v 13 760
v 14 330
v 15 760
v 16 650
v 17 560
v 18 270
v 19 300
v 20 540
v 21 50
v 22 560
v 23 80
v 24 60
v 25 440
v 26 30
v 27 50
v 28 60
v 29 120
v 30 150
v 31 30
v 32 70
v 33 60
v 34 110
v 35 110
v 36 180
v 37 340
v 38 20
e 1 2
e 1 3
e 1 4
e 1 5
e 1 6
e 1 11
e 1 15
e 1 19
e 1 23
e 1 35
e 2 3
e 2 4
e 2 5
e 2 12
e 2 16
e 2 30
e 2 36
e 3 4
e 3 5
e 3 8
e 3 17
e 3 20
e 3 25
e 3 32
e 4 5
e 4 13
e 4 27
e 4 33
e 4 38
e 5 14
e 5 18
e 5 21
e 5 28
e 5 34
e 6 7
e 6 8
e 6 9
e 6 10
e 6 11
e 6 15
e 6 19
e 6 23
e 6 35
e 7 8
e 7 9
e 7 10
e 7 24
e 7 31
e 8 9
e 8 10
e 8 17
e 8 20
e 8 25
e 8 32
e 9 10
e 9 26
e 9 37
e 10 22
e 10 29
e 11 12
e 11 13
e 11 14
e 11 15
e 11 19
e 11 23
e 11 35
e 12 13
e 12 14
e 12 16
e 12 30
e 12 36
e 13 14
e 13 27
e 13 33
e 13 38
e 14 18
e 14 21
e 14 28
e 14 34
e 15 16
e 15 17
e 15 18
e 15 19
e 15 23
e 15 35
e 16 17
e 16 18
e 16 30
e 16 36
e 17 18
e 17 20
e 17 25
e 17 32
e 18 21
e 18 28
e 18 34
e 19 20
e 19 21
e 19 22
e 19 23
e 19 35
e 20 21
e 20 22
e 20 25
e 20 32
e 21 22
e 21 28
e 21 34
e 22 29
e 23 24
e 23 25
e 23 26
e 23 27
e 23 28
e 23 29
e 23 35
e 24 25
e 24 26
e 24 27
e 24 28
e 24 29
e 24 31
e 25 26
e 25 27
e 25 28
e 25 29
e 25 32
e 26 27
e 26 28
e 26 29
e 26 37
e 27 28
e 27 29
e 27 33
e 27 38
e 28 29
e 28 34
e 30 31
e 30 32
e 30 33
e 30 34
e 30 36
e 31 32
e 31 33
e 31 34
e 32 33
e 32 34
e 33 34
e 33 38
e 35 36
e 35 37
e 35 38
e 36 37
e 36 38
e 37 38
